LatticeConstant 1.0 Ang
%block LatticeVectors
 5.76000000 0.00000000 0.00000000
 0.00000000 5.90000000 0.00000000
 0.00000000 0.00000000 7.69100000
%endblock LatticeVectors

PAO.BasisSize DZP
NumberOfAtoms 12
AtomicCoordinatesFormat Ang
%block AtomicCoordinatesAndAtomicSpecies
  0.00000000 0.00000000 0.00000000 1 # 1: Pd
  2.88000000 2.95000000 0.00000000 1 # 2: Pd
  0.00000000 2.95000000 3.98050000 1 # 3: Pd
  2.88000000 0.00000000 8.98050000 1 # 4: Pd
  0.11200000 0.11700000 0.40700000 2 # 1: Se
  0.61200000 0.38300000 -0.4070000 2 # 2: Se
  -0.1120000 0.61700000 0.09300000 2 # 3: Se
  0.38800000 -0.1170000 0.90700000 2 # 4: Se
  -0.1120000 -0.1170000 -0.4070000 2 # 5: Se
  -0.6120000 -0.3830000 0.40700000 2 # 6: Se
  0.11200000 -0.6170000 -0.0930000 2 # 7: Se
  -0.3880000 0.11700000 -0.9070000 2 # 8: Se
%endblock AtomicCoordinatesAndAtomicSpecies

TS.HS.Save true

NumberOfSpecies 2
%block ChemicalSpeciesLabel
 1 46 Pd
 2 34 Se
%endblock ChemicalSpeciesLabel

MD.TypeOfRun CG
MD.Steps 1000
Md.MaxForceTol 0.01 eV/Ang
