LatticeConstant 1.0 Ang
%block LatticeVectors
 5.76000000 0.00000000 0.00000000
 0.00000000 5.90000000 0.00000000
 0.00000000 0.00000000 20.0000000
%endblock LatticeVectors

PAO.BasisSize DZP

NumberOfAtoms 6
AtomicCoordinatesFormat Ang
%block AtomicCoordinatesAndAtomicSpecies
  0.00000000 0.00000000 0.00000000 1 # 1: Pd 
  2.88000000 2.95000000 0.00000000 1 # 2: Pd
  3.45600000 0.66461500 0.67483044 2 # 1: Se
  0.69100000 2.21538500 -0.6748304 2 # 2: Se
  5.18400000 3.54461200 0.67483000 2 # 3: Se
  2.18880000 5.09538500 -0.6748304 2 # 4: Se  
%endblock AtomicCoordinatesAndAtomicSpecies

TS.HS.Save true
NumberOfSpecies 2
%block ChemicalSpeciesLabel
 1 46 Pd
 2 34 Se
%endblock ChemicalSpeciesLabel

MD.TypeOfRun CG
MD.Steps 1000
Md.MaxForceTol 0.01 eV/Ang
WriteCoorXmol          true         #Save the final coordinates in .xyz format 

WriteMDXmol            true         #Writes the coordinates 
                                    #of all atoms at all steps
                                    #in a .ANI file
                                    #in xyz format
                                    
WriteMDhistory         true         #writes .MDE and .MD files
                                    # with output data from MD simulation
                                    # MDE contains: Temp, energy, volume, pressure 
                                    # (human readable)
                                    # MD contains coords vel lattice vectors
                                    # (unformatted; post-process with iomd.f)  